;; Preprocessed for Astral solver
(set-info :status unsat)
;; variables
(declare-const x0 Loc)
(declare-const x1 Loc)
(declare-const x2 Loc)
(declare-const x3 Loc)
(declare-const x4 Loc)
(declare-const x5 Loc)
(declare-const x6 Loc)
(declare-const x7 Loc)
(declare-const x8 Loc)
(declare-const x9 Loc)
(declare-const x10 Loc)
(declare-const x11 Loc)
(declare-const x12 Loc)
(declare-const x13 Loc)
(declare-const x14 Loc)
(declare-const x15 Loc)
(declare-const x16 Loc)
(declare-const x17 Loc)
(declare-const x18 Loc)

(assert 
		(sep 
			(= nil nil)
			(distinct x8 x9)
			(distinct x3 x14)
			(distinct x9 x13)
			(distinct x9 x12)
			(distinct x12 x14)
			(distinct x2 x11)
			(distinct x2 x7)
			(distinct x2 x13)
			(distinct x2 x5)
			(distinct x5 x11)
			(distinct x5 x14)
		(sep 
			(ls x5 x6 )
			(ls x4 x1 )
			(ls x4 x11 )
			(ls x1 x9 )
			(ls x8 x9 )
			(ls x14 x5 )
			(ls x2 x14 )
			(ls x12 x7 )
			(ls x9 x8 )
			(ls x3 x12 )
			(ls x6 x2 )
			(ls x6 x9 )
		)

		)

)

(check-sat)
